src/induction/code/sw_actlit_1.smt2.out
base check, expecting `unsat`
unsat
step check, expecting `unsat`
unsat
induction proof complete
